c "random instance"
p edges 150 3315
e 1 5
e 1 8
e 1 10
e 1 11
e 1 15
e 1 18
e 1 27
e 1 34
e 1 36
e 1 41
e 1 49
e 1 58
e 1 63
e 1 64
e 1 65
e 1 67
e 1 70
e 1 75
e 1 78
e 1 86
e 1 88
e 1 89
e 1 102
e 1 103
e 1 105
e 1 111
e 1 112
e 1 114
e 1 116
e 1 117
e 1 118
e 1 120
e 1 122
e 1 124
e 1 128
e 1 130
e 1 131
e 1 133
e 1 134
e 1 138
e 1 139
e 1 142
e 1 144
e 1 150
e 2 4
e 2 6
e 2 7
e 2 24
e 2 25
e 2 28
e 2 29
e 2 30
e 2 33
e 2 35
e 2 41
e 2 46
e 2 56
e 2 57
e 2 58
e 2 61
e 2 63
e 2 70
e 2 75
e 2 79
e 2 81
e 2 85
e 2 86
e 2 87
e 2 90
e 2 91
e 2 94
e 2 95
e 2 99
e 2 105
e 2 120
e 2 131
e 2 132
e 2 143
e 2 145
e 2 149
e 3 10
e 3 11
e 3 12
e 3 13
e 3 15
e 3 20
e 3 21
e 3 22
e 3 26
e 3 27
e 3 34
e 3 38
e 3 40
e 3 41
e 3 43
e 3 45
e 3 50
e 3 58
e 3 62
e 3 64
e 3 65
e 3 67
e 3 70
e 3 73
e 3 75
e 3 79
e 3 83
e 3 89
e 3 94
e 3 99
e 3 101
e 3 102
e 3 105
e 3 106
e 3 110
e 3 111
e 3 112
e 3 115
e 3 117
e 3 118
e 3 122
e 3 123
e 3 131
e 3 132
e 3 133
e 3 134
e 3 141
e 3 148
e 3 149
e 4 7
e 4 12
e 4 17
e 4 18
e 4 19
e 4 22
e 4 23
e 4 24
e 4 26
e 4 28
e 4 32
e 4 42
e 4 52
e 4 58
e 4 59
e 4 62
e 4 64
e 4 67
e 4 71
e 4 79
e 4 81
e 4 82
e 4 84
e 4 88
e 4 91
e 4 93
e 4 94
e 4 95
e 4 101
e 4 102
e 4 105
e 4 110
e 4 112
e 4 117
e 4 121
e 4 134
e 4 139
e 4 141
e 4 146
e 4 148
e 4 149
e 5 10
e 5 13
e 5 21
e 5 22
e 5 24
e 5 28
e 5 30
e 5 32
e 5 36
e 5 50
e 5 54
e 5 56
e 5 64
e 5 67
e 5 74
e 5 81
e 5 85
e 5 88
e 5 90
e 5 94
e 5 97
e 5 100
e 5 102
e 5 103
e 5 113
e 5 114
e 5 115
e 5 124
e 5 126
e 5 128
e 5 129
e 5 141
e 5 145
e 5 149
e 6 10
e 6 13
e 6 14
e 6 15
e 6 17
e 6 20
e 6 22
e 6 24
e 6 25
e 6 33
e 6 34
e 6 41
e 6 50
e 6 53
e 6 54
e 6 58
e 6 60
e 6 61
e 6 62
e 6 64
e 6 70
e 6 74
e 6 75
e 6 77
e 6 78
e 6 80
e 6 82
e 6 85
e 6 91
e 6 92
e 6 102
e 6 105
e 6 112
e 6 117
e 6 121
e 6 122
e 6 127
e 6 130
e 6 132
e 6 137
e 6 140
e 6 141
e 6 144
e 6 145
e 6 147
e 6 150
e 7 8
e 7 10
e 7 11
e 7 13
e 7 26
e 7 27
e 7 28
e 7 38
e 7 39
e 7 41
e 7 50
e 7 52
e 7 54
e 7 56
e 7 57
e 7 59
e 7 63
e 7 69
e 7 75
e 7 76
e 7 77
e 7 78
e 7 80
e 7 81
e 7 85
e 7 89
e 7 91
e 7 95
e 7 96
e 7 98
e 7 105
e 7 109
e 7 111
e 7 112
e 7 118
e 7 122
e 7 131
e 7 133
e 7 134
e 7 140
e 7 143
e 7 150
e 8 11
e 8 15
e 8 17
e 8 19
e 8 25
e 8 27
e 8 29
e 8 30
e 8 34
e 8 46
e 8 47
e 8 48
e 8 55
e 8 58
e 8 62
e 8 63
e 8 67
e 8 70
e 8 71
e 8 72
e 8 76
e 8 81
e 8 84
e 8 92
e 8 93
e 8 94
e 8 99
e 8 102
e 8 116
e 8 117
e 8 118
e 8 119
e 8 120
e 8 122
e 8 126
e 8 129
e 8 132
e 8 133
e 8 140
e 8 142
e 8 144
e 8 150
e 9 11
e 9 15
e 9 19
e 9 20
e 9 29
e 9 32
e 9 33
e 9 36
e 9 38
e 9 39
e 9 40
e 9 45
e 9 49
e 9 51
e 9 53
e 9 59
e 9 61
e 9 62
e 9 71
e 9 78
e 9 83
e 9 84
e 9 86
e 9 89
e 9 90
e 9 95
e 9 100
e 9 106
e 9 107
e 9 108
e 9 109
e 9 110
e 9 111
e 9 113
e 9 116
e 9 118
e 9 120
e 9 125
e 9 142
e 9 144
e 9 145
e 9 146
e 9 147
e 9 148
e 10 24
e 10 25
e 10 29
e 10 33
e 10 38
e 10 40
e 10 54
e 10 57
e 10 60
e 10 64
e 10 69
e 10 70
e 10 71
e 10 72
e 10 74
e 10 75
e 10 79
e 10 81
e 10 85
e 10 90
e 10 95
e 10 99
e 10 101
e 10 103
e 10 108
e 10 110
e 10 112
e 10 118
e 10 120
e 10 122
e 10 123
e 10 129
e 10 130
e 10 133
e 10 134
e 10 140
e 10 141
e 10 148
e 11 16
e 11 18
e 11 22
e 11 29
e 11 31
e 11 35
e 11 38
e 11 39
e 11 45
e 11 49
e 11 50
e 11 55
e 11 56
e 11 58
e 11 60
e 11 65
e 11 68
e 11 69
e 11 71
e 11 72
e 11 74
e 11 76
e 11 78
e 11 82
e 11 84
e 11 96
e 11 98
e 11 102
e 11 108
e 11 109
e 11 111
e 11 116
e 11 122
e 11 128
e 11 129
e 11 133
e 11 137
e 11 140
e 11 143
e 11 146
e 12 19
e 12 20
e 12 23
e 12 29
e 12 34
e 12 38
e 12 51
e 12 54
e 12 59
e 12 60
e 12 62
e 12 65
e 12 67
e 12 68
e 12 73
e 12 82
e 12 87
e 12 88
e 12 89
e 12 90
e 12 97
e 12 98
e 12 101
e 12 105
e 12 106
e 12 107
e 12 122
e 12 124
e 12 125
e 12 131
e 12 133
e 12 135
e 12 138
e 12 143
e 12 144
e 12 148
e 12 149
e 13 20
e 13 21
e 13 23
e 13 24
e 13 25
e 13 26
e 13 27
e 13 30
e 13 35
e 13 38
e 13 44
e 13 48
e 13 50
e 13 52
e 13 53
e 13 54
e 13 55
e 13 57
e 13 66
e 13 71
e 13 72
e 13 73
e 13 74
e 13 76
e 13 79
e 13 80
e 13 91
e 13 102
e 13 108
e 13 110
e 13 114
e 13 119
e 13 129
e 13 131
e 13 134
e 13 135
e 13 139
e 13 144
e 13 148
e 13 150
e 14 15
e 14 16
e 14 17
e 14 19
e 14 20
e 14 25
e 14 26
e 14 28
e 14 29
e 14 30
e 14 32
e 14 33
e 14 34
e 14 37
e 14 39
e 14 43
e 14 45
e 14 50
e 14 52
e 14 53
e 14 54
e 14 58
e 14 62
e 14 64
e 14 67
e 14 76
e 14 77
e 14 84
e 14 85
e 14 88
e 14 90
e 14 94
e 14 97
e 14 112
e 14 113
e 14 115
e 14 116
e 14 118
e 14 120
e 14 122
e 14 124
e 14 125
e 14 127
e 14 130
e 14 133
e 14 140
e 14 142
e 14 147
e 14 148
e 15 16
e 15 21
e 15 26
e 15 28
e 15 29
e 15 33
e 15 34
e 15 36
e 15 41
e 15 49
e 15 50
e 15 51
e 15 53
e 15 57
e 15 58
e 15 59
e 15 60
e 15 62
e 15 68
e 15 77
e 15 78
e 15 79
e 15 84
e 15 91
e 15 92
e 15 95
e 15 96
e 15 105
e 15 106
e 15 108
e 15 111
e 15 116
e 15 117
e 15 121
e 15 126
e 15 134
e 15 143
e 15 146
e 15 150
e 16 38
e 16 39
e 16 43
e 16 44
e 16 49
e 16 64
e 16 65
e 16 68
e 16 76
e 16 77
e 16 84
e 16 91
e 16 93
e 16 97
e 16 99
e 16 102
e 16 104
e 16 108
e 16 111
e 16 116
e 16 119
e 16 123
e 16 133
e 16 134
e 16 137
e 16 138
e 16 139
e 16 145
e 16 149
e 17 22
e 17 23
e 17 24
e 17 27
e 17 28
e 17 30
e 17 32
e 17 35
e 17 39
e 17 42
e 17 47
e 17 51
e 17 53
e 17 63
e 17 69
e 17 73
e 17 76
e 17 82
e 17 86
e 17 89
e 17 90
e 17 93
e 17 96
e 17 103
e 17 104
e 17 106
e 17 114
e 17 120
e 17 122
e 17 128
e 17 131
e 17 136
e 18 29
e 18 33
e 18 44
e 18 48
e 18 64
e 18 74
e 18 75
e 18 84
e 18 86
e 18 91
e 18 103
e 18 108
e 18 113
e 18 121
e 18 122
e 18 127
e 18 133
e 18 143
e 18 145
e 19 24
e 19 26
e 19 28
e 19 32
e 19 36
e 19 41
e 19 45
e 19 46
e 19 49
e 19 50
e 19 53
e 19 58
e 19 60
e 19 61
e 19 62
e 19 64
e 19 65
e 19 66
e 19 72
e 19 73
e 19 75
e 19 77
e 19 81
e 19 82
e 19 85
e 19 87
e 19 90
e 19 94
e 19 98
e 19 104
e 19 107
e 19 108
e 19 109
e 19 110
e 19 111
e 19 114
e 19 118
e 19 121
e 19 122
e 19 131
e 19 136
e 19 138
e 19 143
e 19 147
e 19 148
e 19 149
e 20 23
e 20 30
e 20 31
e 20 35
e 20 41
e 20 43
e 20 46
e 20 50
e 20 55
e 20 59
e 20 66
e 20 67
e 20 68
e 20 71
e 20 74
e 20 85
e 20 92
e 20 93
e 20 99
e 20 101
e 20 102
e 20 106
e 20 107
e 20 109
e 20 110
e 20 119
e 20 121
e 20 123
e 20 127
e 20 133
e 20 146
e 20 148
e 20 149
e 21 22
e 21 25
e 21 29
e 21 31
e 21 33
e 21 34
e 21 35
e 21 39
e 21 40
e 21 49
e 21 50
e 21 51
e 21 52
e 21 62
e 21 63
e 21 68
e 21 74
e 21 80
e 21 82
e 21 83
e 21 86
e 21 91
e 21 94
e 21 95
e 21 99
e 21 101
e 21 111
e 21 116
e 21 118
e 21 121
e 21 123
e 21 126
e 21 132
e 21 134
e 21 136
e 21 139
e 21 142
e 21 147
e 21 148
e 22 23
e 22 31
e 22 32
e 22 34
e 22 38
e 22 40
e 22 42
e 22 44
e 22 45
e 22 47
e 22 48
e 22 51
e 22 54
e 22 59
e 22 62
e 22 74
e 22 75
e 22 76
e 22 79
e 22 80
e 22 82
e 22 84
e 22 85
e 22 92
e 22 93
e 22 98
e 22 99
e 22 101
e 22 106
e 22 107
e 22 108
e 22 110
e 22 119
e 22 121
e 22 122
e 22 126
e 22 127
e 22 129
e 22 137
e 22 147
e 22 148
e 23 29
e 23 31
e 23 32
e 23 39
e 23 41
e 23 42
e 23 44
e 23 46
e 23 51
e 23 56
e 23 57
e 23 59
e 23 62
e 23 66
e 23 67
e 23 68
e 23 70
e 23 73
e 23 77
e 23 80
e 23 81
e 23 85
e 23 92
e 23 93
e 23 101
e 23 104
e 23 106
e 23 109
e 23 116
e 23 117
e 23 121
e 23 125
e 23 128
e 23 130
e 23 131
e 23 132
e 23 133
e 23 138
e 23 142
e 23 144
e 23 147
e 24 25
e 24 26
e 24 30
e 24 34
e 24 35
e 24 45
e 24 46
e 24 57
e 24 60
e 24 63
e 24 65
e 24 70
e 24 71
e 24 72
e 24 77
e 24 81
e 24 87
e 24 93
e 24 95
e 24 97
e 24 104
e 24 106
e 24 107
e 24 122
e 24 127
e 24 128
e 24 137
e 24 138
e 24 140
e 24 141
e 24 143
e 24 144
e 25 29
e 25 30
e 25 33
e 25 36
e 25 37
e 25 45
e 25 46
e 25 47
e 25 48
e 25 54
e 25 55
e 25 57
e 25 59
e 25 60
e 25 68
e 25 69
e 25 86
e 25 88
e 25 96
e 25 97
e 25 101
e 25 102
e 25 107
e 25 108
e 25 122
e 25 123
e 25 124
e 25 129
e 25 140
e 25 141
e 25 145
e 25 149
e 25 150
e 26 30
e 26 36
e 26 39
e 26 42
e 26 51
e 26 54
e 26 57
e 26 59
e 26 63
e 26 68
e 26 78
e 26 79
e 26 91
e 26 93
e 26 95
e 26 104
e 26 106
e 26 120
e 26 123
e 26 128
e 26 129
e 26 132
e 26 133
e 26 135
e 26 137
e 26 139
e 26 150
e 27 29
e 27 30
e 27 31
e 27 34
e 27 35
e 27 38
e 27 40
e 27 46
e 27 47
e 27 50
e 27 51
e 27 53
e 27 54
e 27 60
e 27 63
e 27 66
e 27 70
e 27 71
e 27 73
e 27 76
e 27 77
e 27 78
e 27 81
e 27 92
e 27 93
e 27 94
e 27 100
e 27 102
e 27 110
e 27 114
e 27 115
e 27 121
e 27 123
e 27 124
e 27 128
e 27 134
e 27 135
e 27 144
e 27 149
e 28 29
e 28 30
e 28 38
e 28 44
e 28 50
e 28 55
e 28 56
e 28 59
e 28 60
e 28 63
e 28 64
e 28 67
e 28 70
e 28 71
e 28 75
e 28 76
e 28 86
e 28 93
e 28 95
e 28 96
e 28 99
e 28 100
e 28 106
e 28 107
e 28 109
e 28 111
e 28 112
e 28 116
e 28 117
e 28 125
e 28 127
e 28 140
e 28 146
e 28 149
e 29 31
e 29 32
e 29 36
e 29 38
e 29 40
e 29 48
e 29 57
e 29 64
e 29 67
e 29 69
e 29 76
e 29 77
e 29 90
e 29 92
e 29 95
e 29 98
e 29 99
e 29 103
e 29 105
e 29 106
e 29 108
e 29 117
e 29 118
e 29 119
e 29 120
e 29 121
e 29 126
e 29 127
e 29 139
e 29 140
e 29 141
e 29 142
e 29 143
e 29 144
e 30 31
e 30 35
e 30 36
e 30 38
e 30 59
e 30 62
e 30 67
e 30 69
e 30 73
e 30 77
e 30 81
e 30 85
e 30 86
e 30 88
e 30 91
e 30 92
e 30 94
e 30 96
e 30 97
e 30 98
e 30 99
e 30 104
e 30 111
e 30 117
e 30 120
e 30 126
e 30 128
e 30 129
e 30 131
e 30 134
e 30 137
e 30 142
e 30 143
e 30 145
e 30 148
e 31 32
e 31 34
e 31 36
e 31 37
e 31 39
e 31 40
e 31 43
e 31 46
e 31 51
e 31 52
e 31 71
e 31 72
e 31 73
e 31 77
e 31 78
e 31 82
e 31 83
e 31 85
e 31 86
e 31 87
e 31 89
e 31 91
e 31 101
e 31 102
e 31 103
e 31 109
e 31 113
e 31 116
e 31 117
e 31 118
e 31 122
e 31 136
e 31 137
e 31 144
e 31 145
e 32 38
e 32 45
e 32 48
e 32 53
e 32 74
e 32 75
e 32 80
e 32 84
e 32 88
e 32 99
e 32 102
e 32 107
e 32 113
e 32 121
e 32 126
e 32 130
e 32 138
e 32 142
e 32 146
e 32 147
e 33 38
e 33 40
e 33 41
e 33 46
e 33 47
e 33 50
e 33 54
e 33 55
e 33 56
e 33 60
e 33 62
e 33 73
e 33 78
e 33 79
e 33 80
e 33 81
e 33 83
e 33 86
e 33 87
e 33 88
e 33 89
e 33 92
e 33 93
e 33 94
e 33 99
e 33 103
e 33 104
e 33 105
e 33 109
e 33 114
e 33 117
e 33 118
e 33 119
e 33 121
e 33 123
e 33 124
e 33 125
e 33 129
e 33 131
e 33 133
e 33 138
e 33 141
e 33 142
e 33 145
e 33 150
e 34 38
e 34 42
e 34 44
e 34 50
e 34 52
e 34 56
e 34 57
e 34 58
e 34 62
e 34 63
e 34 65
e 34 67
e 34 79
e 34 80
e 34 82
e 34 89
e 34 94
e 34 96
e 34 101
e 34 103
e 34 104
e 34 108
e 34 112
e 34 114
e 34 115
e 34 116
e 34 120
e 34 122
e 34 126
e 34 128
e 34 129
e 34 130
e 34 131
e 34 133
e 34 135
e 34 143
e 34 145
e 34 148
e 34 149
e 35 36
e 35 42
e 35 44
e 35 46
e 35 50
e 35 53
e 35 55
e 35 58
e 35 64
e 35 67
e 35 73
e 35 76
e 35 78
e 35 79
e 35 80
e 35 81
e 35 83
e 35 91
e 35 92
e 35 94
e 35 97
e 35 99
e 35 100
e 35 102
e 35 108
e 35 113
e 35 115
e 35 125
e 35 131
e 35 132
e 35 133
e 35 135
e 35 136
e 35 142
e 35 145
e 35 146
e 36 45
e 36 47
e 36 55
e 36 59
e 36 62
e 36 66
e 36 68
e 36 69
e 36 73
e 36 74
e 36 80
e 36 82
e 36 86
e 36 88
e 36 95
e 36 98
e 36 101
e 36 102
e 36 111
e 36 115
e 36 118
e 36 124
e 36 128
e 36 133
e 36 134
e 36 137
e 36 139
e 36 140
e 36 141
e 36 144
e 36 149
e 37 39
e 37 40
e 37 41
e 37 43
e 37 46
e 37 50
e 37 52
e 37 57
e 37 59
e 37 63
e 37 66
e 37 67
e 37 77
e 37 79
e 37 82
e 37 86
e 37 88
e 37 99
e 37 101
e 37 102
e 37 116
e 37 117
e 37 118
e 37 119
e 37 126
e 37 130
e 37 134
e 37 137
e 37 138
e 37 140
e 37 142
e 37 144
e 37 145
e 38 39
e 38 48
e 38 52
e 38 53
e 38 54
e 38 55
e 38 57
e 38 62
e 38 66
e 38 75
e 38 76
e 38 81
e 38 82
e 38 83
e 38 84
e 38 87
e 38 98
e 38 100
e 38 105
e 38 109
e 38 111
e 38 112
e 38 115
e 38 120
e 38 125
e 38 126
e 38 128
e 38 129
e 38 132
e 38 133
e 38 135
e 38 136
e 38 147
e 38 148
e 38 150
e 39 41
e 39 51
e 39 53
e 39 57
e 39 58
e 39 63
e 39 69
e 39 72
e 39 73
e 39 74
e 39 76
e 39 81
e 39 84
e 39 87
e 39 92
e 39 94
e 39 97
e 39 98
e 39 101
e 39 102
e 39 107
e 39 108
e 39 109
e 39 110
e 39 111
e 39 119
e 39 120
e 39 123
e 39 130
e 39 136
e 39 137
e 39 141
e 39 144
e 39 146
e 40 45
e 40 49
e 40 55
e 40 57
e 40 63
e 40 64
e 40 68
e 40 74
e 40 78
e 40 84
e 40 87
e 40 92
e 40 96
e 40 104
e 40 112
e 40 116
e 40 121
e 40 122
e 40 124
e 40 127
e 40 130
e 40 131
e 40 137
e 40 139
e 40 143
e 40 144
e 41 47
e 41 49
e 41 50
e 41 57
e 41 62
e 41 63
e 41 64
e 41 70
e 41 75
e 41 77
e 41 79
e 41 91
e 41 92
e 41 93
e 41 96
e 41 97
e 41 103
e 41 104
e 41 108
e 41 110
e 41 116
e 41 118
e 41 119
e 41 122
e 41 124
e 41 127
e 41 131
e 41 132
e 41 134
e 41 136
e 41 139
e 41 147
e 42 47
e 42 48
e 42 49
e 42 54
e 42 56
e 42 60
e 42 62
e 42 63
e 42 65
e 42 67
e 42 70
e 42 71
e 42 73
e 42 74
e 42 75
e 42 76
e 42 82
e 42 85
e 42 86
e 42 87
e 42 90
e 42 93
e 42 98
e 42 99
e 42 104
e 42 105
e 42 108
e 42 111
e 42 117
e 42 118
e 42 122
e 42 133
e 42 137
e 42 141
e 42 142
e 42 143
e 42 146
e 42 149
e 43 44
e 43 46
e 43 47
e 43 50
e 43 52
e 43 57
e 43 62
e 43 66
e 43 67
e 43 70
e 43 74
e 43 75
e 43 77
e 43 79
e 43 87
e 43 95
e 43 100
e 43 102
e 43 103
e 43 105
e 43 106
e 43 107
e 43 108
e 43 110
e 43 115
e 43 116
e 43 117
e 43 123
e 43 125
e 43 126
e 43 136
e 43 139
e 43 143
e 43 145
e 43 146
e 43 147
e 43 149
e 44 46
e 44 54
e 44 62
e 44 63
e 44 64
e 44 67
e 44 73
e 44 74
e 44 77
e 44 80
e 44 81
e 44 88
e 44 92
e 44 93
e 44 96
e 44 98
e 44 99
e 44 102
e 44 104
e 44 105
e 44 106
e 44 107
e 44 112
e 44 113
e 44 115
e 44 117
e 44 123
e 44 127
e 44 130
e 44 134
e 44 135
e 44 140
e 44 143
e 44 146
e 45 46
e 45 47
e 45 49
e 45 51
e 45 52
e 45 63
e 45 65
e 45 77
e 45 79
e 45 80
e 45 83
e 45 85
e 45 87
e 45 93
e 45 98
e 45 99
e 45 102
e 45 106
e 45 108
e 45 111
e 45 113
e 45 115
e 45 122
e 45 128
e 45 129
e 45 130
e 45 139
e 45 143
e 45 146
e 45 150
e 46 47
e 46 62
e 46 64
e 46 65
e 46 66
e 46 73
e 46 74
e 46 78
e 46 79
e 46 83
e 46 84
e 46 85
e 46 86
e 46 87
e 46 88
e 46 89
e 46 90
e 46 93
e 46 96
e 46 97
e 46 98
e 46 103
e 46 105
e 46 106
e 46 107
e 46 118
e 46 119
e 46 122
e 46 124
e 46 126
e 46 129
e 46 134
e 46 136
e 46 137
e 46 138
e 46 139
e 46 141
e 46 149
e 47 49
e 47 54
e 47 57
e 47 59
e 47 62
e 47 63
e 47 71
e 47 73
e 47 74
e 47 77
e 47 82
e 47 85
e 47 88
e 47 89
e 47 91
e 47 97
e 47 110
e 47 112
e 47 113
e 47 116
e 47 119
e 47 121
e 47 131
e 47 134
e 47 137
e 47 138
e 47 141
e 47 143
e 47 146
e 47 147
e 47 148
e 47 149
e 48 53
e 48 54
e 48 58
e 48 62
e 48 64
e 48 69
e 48 70
e 48 72
e 48 77
e 48 78
e 48 84
e 48 86
e 48 87
e 48 88
e 48 92
e 48 97
e 48 98
e 48 99
e 48 103
e 48 105
e 48 108
e 48 111
e 48 120
e 48 124
e 48 127
e 48 128
e 48 131
e 48 136
e 48 137
e 48 141
e 48 142
e 48 144
e 49 50
e 49 51
e 49 54
e 49 62
e 49 64
e 49 65
e 49 70
e 49 71
e 49 72
e 49 74
e 49 76
e 49 77
e 49 80
e 49 81
e 49 84
e 49 87
e 49 88
e 49 92
e 49 97
e 49 103
e 49 104
e 49 108
e 49 111
e 49 112
e 49 114
e 49 122
e 49 124
e 49 127
e 49 131
e 49 135
e 49 141
e 49 147
e 49 150
e 50 51
e 50 54
e 50 55
e 50 57
e 50 61
e 50 66
e 50 71
e 50 72
e 50 74
e 50 75
e 50 79
e 50 81
e 50 86
e 50 89
e 50 92
e 50 93
e 50 94
e 50 96
e 50 98
e 50 106
e 50 110
e 50 114
e 50 115
e 50 116
e 50 118
e 50 119
e 50 123
e 50 124
e 50 125
e 50 128
e 50 129
e 50 134
e 50 135
e 50 136
e 50 141
e 50 146
e 51 56
e 51 58
e 51 60
e 51 62
e 51 67
e 51 72
e 51 73
e 51 74
e 51 75
e 51 77
e 51 78
e 51 82
e 51 95
e 51 96
e 51 97
e 51 98
e 51 102
e 51 104
e 51 106
e 51 107
e 51 108
e 51 110
e 51 112
e 51 122
e 51 129
e 51 132
e 51 134
e 51 139
e 51 141
e 51 147
e 52 64
e 52 65
e 52 66
e 52 67
e 52 72
e 52 73
e 52 74
e 52 75
e 52 79
e 52 83
e 52 85
e 52 90
e 52 94
e 52 97
e 52 104
e 52 108
e 52 109
e 52 114
e 52 116
e 52 117
e 52 119
e 52 124
e 52 134
e 52 136
e 52 141
e 52 143
e 52 144
e 52 145
e 53 54
e 53 56
e 53 58
e 53 59
e 53 61
e 53 68
e 53 69
e 53 70
e 53 72
e 53 73
e 53 76
e 53 77
e 53 85
e 53 87
e 53 88
e 53 89
e 53 96
e 53 100
e 53 101
e 53 104
e 53 105
e 53 113
e 53 114
e 53 117
e 53 127
e 53 129
e 53 131
e 53 135
e 53 146
e 53 149
e 54 58
e 54 61
e 54 64
e 54 71
e 54 75
e 54 76
e 54 78
e 54 81
e 54 83
e 54 86
e 54 88
e 54 90
e 54 91
e 54 95
e 54 96
e 54 97
e 54 102
e 54 105
e 54 108
e 54 118
e 54 119
e 54 120
e 54 121
e 54 122
e 54 123
e 54 124
e 54 131
e 54 133
e 54 135
e 54 136
e 55 58
e 55 59
e 55 66
e 55 73
e 55 75
e 55 77
e 55 78
e 55 82
e 55 83
e 55 84
e 55 85
e 55 91
e 55 92
e 55 98
e 55 100
e 55 103
e 55 108
e 55 113
e 55 119
e 55 123
e 55 124
e 55 126
e 55 129
e 55 131
e 55 134
e 55 135
e 55 138
e 55 141
e 55 143
e 56 73
e 56 77
e 56 78
e 56 81
e 56 82
e 56 83
e 56 84
e 56 89
e 56 91
e 56 92
e 56 99
e 56 102
e 56 103
e 56 108
e 56 115
e 56 122
e 56 123
e 56 124
e 56 130
e 56 137
e 56 140
e 56 141
e 56 142
e 56 144
e 56 147
e 57 60
e 57 63
e 57 65
e 57 68
e 57 71
e 57 72
e 57 74
e 57 83
e 57 85
e 57 90
e 57 91
e 57 92
e 57 98
e 57 102
e 57 104
e 57 105
e 57 109
e 57 110
e 57 112
e 57 114
e 57 115
e 57 116
e 57 119
e 57 120
e 57 123
e 57 125
e 57 126
e 57 127
e 57 128
e 57 132
e 57 133
e 57 137
e 57 140
e 57 141
e 57 143
e 57 144
e 57 145
e 57 148
e 58 59
e 58 62
e 58 70
e 58 71
e 58 73
e 58 76
e 58 77
e 58 80
e 58 81
e 58 86
e 58 88
e 58 89
e 58 90
e 58 98
e 58 102
e 58 103
e 58 105
e 58 111
e 58 112
e 58 113
e 58 116
e 58 119
e 58 123
e 58 128
e 58 134
e 58 138
e 58 139
e 58 146
e 58 147
e 59 61
e 59 62
e 59 66
e 59 70
e 59 71
e 59 74
e 59 75
e 59 76
e 59 78
e 59 80
e 59 84
e 59 85
e 59 86
e 59 88
e 59 89
e 59 91
e 59 92
e 59 93
e 59 94
e 59 98
e 59 102
e 59 106
e 59 113
e 59 114
e 59 118
e 59 119
e 59 121
e 59 127
e 59 133
e 59 135
e 59 136
e 59 138
e 59 142
e 59 144
e 59 149
e 59 150
e 60 64
e 60 68
e 60 71
e 60 72
e 60 74
e 60 77
e 60 78
e 60 79
e 60 80
e 60 82
e 60 91
e 60 105
e 60 112
e 60 113
e 60 118
e 60 120
e 60 122
e 60 123
e 60 124
e 60 125
e 60 126
e 60 127
e 60 129
e 60 133
e 60 135
e 60 137
e 60 139
e 60 140
e 60 142
e 60 143
e 60 145
e 60 146
e 60 150
e 61 62
e 61 68
e 61 71
e 61 72
e 61 73
e 61 75
e 61 81
e 61 89
e 61 96
e 61 97
e 61 99
e 61 102
e 61 108
e 61 109
e 61 111
e 61 116
e 61 120
e 61 122
e 61 126
e 61 132
e 61 135
e 61 136
e 61 138
e 61 139
e 61 141
e 61 142
e 61 143
e 61 146
e 61 147
e 61 148
e 62 63
e 62 64
e 62 66
e 62 69
e 62 73
e 62 76
e 62 79
e 62 85
e 62 88
e 62 90
e 62 91
e 62 92
e 62 93
e 62 100
e 62 103
e 62 105
e 62 109
e 62 113
e 62 116
e 62 117
e 62 125
e 62 126
e 62 127
e 62 129
e 62 131
e 62 132
e 62 140
e 62 141
e 62 147
e 62 148
e 62 149
e 63 67
e 63 75
e 63 77
e 63 78
e 63 84
e 63 86
e 63 87
e 63 93
e 63 95
e 63 97
e 63 113
e 63 115
e 63 118
e 63 119
e 63 124
e 63 126
e 63 130
e 63 131
e 63 135
e 63 136
e 63 137
e 63 143
e 63 144
e 63 146
e 63 149
e 64 71
e 64 74
e 64 76
e 64 77
e 64 78
e 64 81
e 64 82
e 64 83
e 64 87
e 64 88
e 64 89
e 64 90
e 64 96
e 64 101
e 64 102
e 64 106
e 64 109
e 64 114
e 64 115
e 64 119
e 64 122
e 64 123
e 64 129
e 64 130
e 64 131
e 64 138
e 64 140
e 64 146
e 64 148
e 65 66
e 65 68
e 65 70
e 65 72
e 65 74
e 65 75
e 65 79
e 65 83
e 65 88
e 65 91
e 65 94
e 65 96
e 65 97
e 65 102
e 65 109
e 65 111
e 65 113
e 65 114
e 65 116
e 65 117
e 65 119
e 65 120
e 65 121
e 65 124
e 65 127
e 65 128
e 65 129
e 65 130
e 65 132
e 65 135
e 65 138
e 65 148
e 66 67
e 66 69
e 66 78
e 66 98
e 66 104
e 66 106
e 66 107
e 66 113
e 66 119
e 66 120
e 66 121
e 66 125
e 66 127
e 66 138
e 66 140
e 66 142
e 66 148
e 67 70
e 67 76
e 67 88
e 67 89
e 67 92
e 67 97
e 67 100
e 67 102
e 67 103
e 67 104
e 67 107
e 67 110
e 67 112
e 67 114
e 67 118
e 67 124
e 67 126
e 67 130
e 67 131
e 67 134
e 67 136
e 67 145
e 68 75
e 68 78
e 68 80
e 68 82
e 68 83
e 68 85
e 68 86
e 68 91
e 68 93
e 68 94
e 68 97
e 68 99
e 68 117
e 68 119
e 68 120
e 68 121
e 68 127
e 68 131
e 68 135
e 68 146
e 68 147
e 68 149
e 69 73
e 69 75
e 69 78
e 69 80
e 69 81
e 69 82
e 69 83
e 69 85
e 69 87
e 69 89
e 69 90
e 69 91
e 69 92
e 69 93
e 69 96
e 69 103
e 69 107
e 69 111
e 69 113
e 69 116
e 69 117
e 69 120
e 69 123
e 69 125
e 69 129
e 69 132
e 69 136
e 69 143
e 69 144
e 70 73
e 70 75
e 70 78
e 70 84
e 70 87
e 70 88
e 70 89
e 70 93
e 70 96
e 70 97
e 70 102
e 70 104
e 70 112
e 70 113
e 70 122
e 70 125
e 70 126
e 70 128
e 70 130
e 70 136
e 70 139
e 70 140
e 70 144
e 70 147
e 70 149
e 71 73
e 71 76
e 71 82
e 71 86
e 71 87
e 71 89
e 71 91
e 71 92
e 71 99
e 71 102
e 71 107
e 71 112
e 71 113
e 71 115
e 71 118
e 71 119
e 71 120
e 71 121
e 71 123
e 71 124
e 71 125
e 71 128
e 71 135
e 71 140
e 71 147
e 71 149
e 72 83
e 72 84
e 72 93
e 72 95
e 72 97
e 72 99
e 72 107
e 72 108
e 72 116
e 72 118
e 72 122
e 72 125
e 72 131
e 72 134
e 72 136
e 72 140
e 72 145
e 73 75
e 73 76
e 73 78
e 73 80
e 73 86
e 73 87
e 73 93
e 73 99
e 73 101
e 73 102
e 73 103
e 73 107
e 73 108
e 73 110
e 73 113
e 73 119
e 73 121
e 73 122
e 73 125
e 73 129
e 73 130
e 73 131
e 73 134
e 73 141
e 73 144
e 73 146
e 74 75
e 74 77
e 74 79
e 74 82
e 74 84
e 74 85
e 74 88
e 74 97
e 74 103
e 74 105
e 74 107
e 74 113
e 74 114
e 74 118
e 74 120
e 74 121
e 74 123
e 74 124
e 74 127
e 74 129
e 74 133
e 74 134
e 74 144
e 74 148
e 75 76
e 75 81
e 75 82
e 75 87
e 75 88
e 75 98
e 75 102
e 75 103
e 75 106
e 75 109
e 75 114
e 75 115
e 75 116
e 75 118
e 75 120
e 75 132
e 75 135
e 75 138
e 75 139
e 75 140
e 75 144
e 76 81
e 76 84
e 76 86
e 76 87
e 76 89
e 76 91
e 76 93
e 76 104
e 76 106
e 76 107
e 76 108
e 76 118
e 76 119
e 76 121
e 76 122
e 76 125
e 76 128
e 76 131
e 76 132
e 76 133
e 76 135
e 76 137
e 76 143
e 76 144
e 76 148
e 76 149
e 77 79
e 77 85
e 77 87
e 77 88
e 77 89
e 77 94
e 77 104
e 77 106
e 77 108
e 77 110
e 77 112
e 77 117
e 77 125
e 77 127
e 77 132
e 77 134
e 77 135
e 77 137
e 77 141
e 77 145
e 77 147
e 78 80
e 78 83
e 78 85
e 78 90
e 78 91
e 78 97
e 78 100
e 78 116
e 78 117
e 78 122
e 78 127
e 78 129
e 78 130
e 78 131
e 78 132
e 78 134
e 78 141
e 78 142
e 78 145
e 78 149
e 78 150
e 79 80
e 79 82
e 79 84
e 79 90
e 79 92
e 79 97
e 79 100
e 79 106
e 79 110
e 79 115
e 79 116
e 79 119
e 79 124
e 79 125
e 79 128
e 79 129
e 79 140
e 79 145
e 79 146
e 80 83
e 80 84
e 80 88
e 80 92
e 80 93
e 80 95
e 80 103
e 80 111
e 80 112
e 80 121
e 80 130
e 80 131
e 80 134
e 80 136
e 80 137
e 80 139
e 80 141
e 80 142
e 80 143
e 80 150
e 81 87
e 81 88
e 81 94
e 81 96
e 81 97
e 81 103
e 81 105
e 81 113
e 81 120
e 81 121
e 81 125
e 81 126
e 81 127
e 81 129
e 81 132
e 81 133
e 81 141
e 81 142
e 81 150
e 82 90
e 82 105
e 82 109
e 82 111
e 82 115
e 82 116
e 82 117
e 82 119
e 82 121
e 82 126
e 82 129
e 82 130
e 82 133
e 82 137
e 82 144
e 83 87
e 83 88
e 83 90
e 83 92
e 83 93
e 83 96
e 83 98
e 83 104
e 83 107
e 83 108
e 83 110
e 83 114
e 83 116
e 83 119
e 83 121
e 83 127
e 83 130
e 83 133
e 83 134
e 83 136
e 83 139
e 83 142
e 83 145
e 83 148
e 83 150
e 84 88
e 84 95
e 84 98
e 84 101
e 84 102
e 84 103
e 84 105
e 84 107
e 84 108
e 84 110
e 84 111
e 84 112
e 84 116
e 84 120
e 84 123
e 84 131
e 84 132
e 84 133
e 84 138
e 84 145
e 84 146
e 84 150
e 85 86
e 85 87
e 85 88
e 85 89
e 85 91
e 85 98
e 85 99
e 85 100
e 85 101
e 85 103
e 85 112
e 85 113
e 85 119
e 85 122
e 85 124
e 85 125
e 85 128
e 85 133
e 85 138
e 85 140
e 85 144
e 85 145
e 85 147
e 85 148
e 85 149
e 86 87
e 86 95
e 86 104
e 86 107
e 86 112
e 86 114
e 86 115
e 86 121
e 86 127
e 86 129
e 86 130
e 86 136
e 86 139
e 86 143
e 87 99
e 87 101
e 87 104
e 87 110
e 87 117
e 87 120
e 87 125
e 87 126
e 87 129
e 87 132
e 87 139
e 87 141
e 87 142
e 87 143
e 87 145
e 87 146
e 87 149
e 88 89
e 88 90
e 88 91
e 88 92
e 88 98
e 88 102
e 88 109
e 88 110
e 88 113
e 88 115
e 88 116
e 88 117
e 88 122
e 88 124
e 88 128
e 88 129
e 88 130
e 88 132
e 88 136
e 88 139
e 88 143
e 88 144
e 88 147
e 89 93
e 89 95
e 89 96
e 89 101
e 89 102
e 89 104
e 89 112
e 89 113
e 89 114
e 89 115
e 89 116
e 89 117
e 89 119
e 89 122
e 89 124
e 89 126
e 89 135
e 89 136
e 89 137
e 89 142
e 89 144
e 89 146
e 90 91
e 90 94
e 90 96
e 90 101
e 90 102
e 90 104
e 90 105
e 90 106
e 90 107
e 90 113
e 90 117
e 90 119
e 90 121
e 90 122
e 90 124
e 90 125
e 90 129
e 90 133
e 90 136
e 90 140
e 90 148
e 91 92
e 91 93
e 91 99
e 91 108
e 91 114
e 91 116
e 91 126
e 91 128
e 91 134
e 91 136
e 91 140
e 91 141
e 91 145
e 91 147
e 91 149
e 92 93
e 92 98
e 92 101
e 92 103
e 92 125
e 92 127
e 92 128
e 92 137
e 92 138
e 92 139
e 92 143
e 92 144
e 92 146
e 92 147
e 92 148
e 92 150
e 93 101
e 93 106
e 93 111
e 93 113
e 93 115
e 93 119
e 93 120
e 93 122
e 93 129
e 93 134
e 93 144
e 93 145
e 93 146
e 93 149
e 94 95
e 94 99
e 94 103
e 94 107
e 94 110
e 94 115
e 94 127
e 94 134
e 94 140
e 94 148
e 94 150
e 95 97
e 95 99
e 95 101
e 95 106
e 95 112
e 95 118
e 95 126
e 95 129
e 95 131
e 95 132
e 95 134
e 95 135
e 95 136
e 95 142
e 95 144
e 95 147
e 95 148
e 96 102
e 96 104
e 96 112
e 96 114
e 96 118
e 96 119
e 96 120
e 96 128
e 96 131
e 96 133
e 96 145
e 96 149
e 96 150
e 97 98
e 97 105
e 97 107
e 97 109
e 97 111
e 97 116
e 97 119
e 97 120
e 97 121
e 97 122
e 97 126
e 97 135
e 97 138
e 97 139
e 97 141
e 97 142
e 97 143
e 97 144
e 97 146
e 97 148
e 98 99
e 98 101
e 98 102
e 98 105
e 98 110
e 98 112
e 98 113
e 98 114
e 98 120
e 98 128
e 98 129
e 98 133
e 98 135
e 98 136
e 98 146
e 98 147
e 98 148
e 99 107
e 99 128
e 99 132
e 99 134
e 99 140
e 99 141
e 99 145
e 99 146
e 99 147
e 100 101
e 100 102
e 100 104
e 100 106
e 100 110
e 100 114
e 100 116
e 100 118
e 100 119
e 100 121
e 100 129
e 100 132
e 100 133
e 100 142
e 100 147
e 100 149
e 101 112
e 101 116
e 101 117
e 101 119
e 101 120
e 101 121
e 101 122
e 101 136
e 101 139
e 101 140
e 101 141
e 101 144
e 101 148
e 102 103
e 102 105
e 102 110
e 102 111
e 102 120
e 102 127
e 102 129
e 102 130
e 102 131
e 102 134
e 102 135
e 102 137
e 102 138
e 102 139
e 102 141
e 102 142
e 102 145
e 102 150
e 103 104
e 103 105
e 103 106
e 103 111
e 103 115
e 103 118
e 103 119
e 103 123
e 103 135
e 103 136
e 103 138
e 103 141
e 103 145
e 103 150
e 104 105
e 104 107
e 104 109
e 104 111
e 104 112
e 104 115
e 104 116
e 104 118
e 104 120
e 104 122
e 104 123
e 104 139
e 104 141
e 104 143
e 104 147
e 105 107
e 105 108
e 105 111
e 105 121
e 105 127
e 105 128
e 105 129
e 105 134
e 105 137
e 105 141
e 105 144
e 105 148
e 105 149
e 106 107
e 106 109
e 106 119
e 106 124
e 106 127
e 106 130
e 106 131
e 106 132
e 106 133
e 106 136
e 106 139
e 107 113
e 107 123
e 107 125
e 107 127
e 107 132
e 107 138
e 107 144
e 107 145
e 107 148
e 108 109
e 108 123
e 108 124
e 108 130
e 108 131
e 108 133
e 108 134
e 108 137
e 108 141
e 108 145
e 109 110
e 109 111
e 109 114
e 109 121
e 109 126
e 109 128
e 109 129
e 109 137
e 109 140
e 109 141
e 109 148
e 109 150
e 110 113
e 110 117
e 110 131
e 110 133
e 110 135
e 110 138
e 110 143
e 111 116
e 111 118
e 111 125
e 111 129
e 111 133
e 111 138
e 111 143
e 111 146
e 112 113
e 112 116
e 112 117
e 112 118
e 112 119
e 112 120
e 112 122
e 112 126
e 112 127
e 112 134
e 112 135
e 112 143
e 112 144
e 112 146
e 112 149
e 112 150
e 113 116
e 113 120
e 113 121
e 113 122
e 113 126
e 113 127
e 113 128
e 113 134
e 113 146
e 113 150
e 114 116
e 114 117
e 114 121
e 114 123
e 114 124
e 114 125
e 114 127
e 114 128
e 114 131
e 114 132
e 114 133
e 114 134
e 114 136
e 114 138
e 114 150
e 115 117
e 115 118
e 115 121
e 115 127
e 115 129
e 115 130
e 115 131
e 115 135
e 115 141
e 115 147
e 115 148
e 115 150
e 116 117
e 116 119
e 116 123
e 116 124
e 116 125
e 116 126
e 116 130
e 116 139
e 116 140
e 116 144
e 116 147
e 116 148
e 117 120
e 117 123
e 117 130
e 117 131
e 117 138
e 117 141
e 117 142
e 117 146
e 117 150
e 118 120
e 118 121
e 118 126
e 118 130
e 118 131
e 118 135
e 118 136
e 118 137
e 118 143
e 118 144
e 118 146
e 118 149
e 118 150
e 119 120
e 119 123
e 119 125
e 119 128
e 119 133
e 119 134
e 119 137
e 119 139
e 119 142
e 120 121
e 120 122
e 120 123
e 120 124
e 120 129
e 120 130
e 120 139
e 120 140
e 120 141
e 120 149
e 121 133
e 121 136
e 121 137
e 121 150
e 122 123
e 122 128
e 122 131
e 122 132
e 122 136
e 122 138
e 122 144
e 122 147
e 123 126
e 123 129
e 123 133
e 123 134
e 123 135
e 123 137
e 123 140
e 123 142
e 123 145
e 123 146
e 124 132
e 124 138
e 124 139
e 124 140
e 124 147
e 124 148
e 125 129
e 125 130
e 125 140
e 125 146
e 126 133
e 126 134
e 126 136
e 126 142
e 126 143
e 126 150
e 127 132
e 127 136
e 127 138
e 127 143
e 127 150
e 128 130
e 128 138
e 128 140
e 128 141
e 128 144
e 128 146
e 129 133
e 129 135
e 129 136
e 129 138
e 129 139
e 129 140
e 129 141
e 129 145
e 129 148
e 130 134
e 130 136
e 130 138
e 130 139
e 130 140
e 130 144
e 130 147
e 130 150
e 131 135
e 131 138
e 131 140
e 131 150
e 132 138
e 132 143
e 132 145
e 132 146
e 132 150
e 133 134
e 133 139
e 133 140
e 133 145
e 133 147
e 133 148
e 134 136
e 134 139
e 134 140
e 134 148
e 134 149
e 135 136
e 135 140
e 135 142
e 135 143
e 135 144
e 136 139
e 136 141
e 136 143
e 136 144
e 136 146
e 136 149
e 136 150
e 138 140
e 138 141
e 138 142
e 138 146
e 138 147
e 138 148
e 138 149
e 139 141
e 139 143
e 139 145
e 140 143
e 140 144
e 140 149
e 141 142
e 141 145
e 141 147
e 141 148
e 141 149
e 142 144
e 143 147
e 143 148
e 143 149
e 143 150
e 144 148
e 145 149
e 145 150
e 146 147
e 146 149
